14211
1 1 1 1 0 1 0 1 1 0 0 1 0 1 1 1 1 1 0 0 1 0 1 0 1 1 1 1 0 1 
20 11 13 2 20 5 2 24 14 17 22 16 8 20 3 14 14 17 5 11 2 0 5 3 5 8 2 24 5 24 5 25 13 25 20 20 24 15 0 14 0 14 15 8 24 14 0 13 27 8 29 14 14 5 13 20 17 11 0 14 0 5 20 11 11 11 22 0 5 22 20 20 11 17 24 8 26 20 14 24 20 7 13 17 17 17 17 7 20 5 2 24 17 11 17 5 2 2 25 16 8 17 17 25 2 29 17 11 14 8 14 1 2 11 11 25 24 24 24 24 5 8 25 13 16 0 5 24 0 25 0 11 24 5 8 14 7 5 20 17 0 8 20 14 8 25 25 11 2 11 
